LAMMPS data file via write_data, version 7 Feb 2024, timestep = 23, units = metal

8 atoms
2 atom types

0 5.77704618 xlo xhi
0 5.77704618 ylo yhi
0 4.639666 zlo zhi
0 0 0 xy xz yz

Masses

1 55.845
2 107.8682

Pair Coeffs # lj/cut

1 0.1 2.5
2 0.15 2.8

Atoms # atomic

1 1 1.3084941273604438 5.4685520526395575 3.9216109951633253 0 -1 -1
2 1 5.468552052639557 1.3084941273604438 1.7180550048366752 -1 0 0
3 2 5.479042157671132 4.138043675530077 1.6717164449948794 -1 -1 0
4 2 2.5731860578616166 4.203860122138385 1.6167346535222311 0 -1 0
5 2 2.6390025044699237 1.2980040223288696 1.6717164449948776 0 0 0
6 2 1.2980040223288682 2.639002504469924 3.9679495550051245 0 0 -1
7 2 4.203860122138385 2.573186057861616 4.022931346477769 -1 0 -1
8 2 4.138043675530077 5.479042157671129 3.9679495550051214 -1 -1 -1

Velocities

1 0 0 0
2 0 0 0
3 0 0 0
4 0 0 0
5 0 0 0
6 0 0 0
7 0 0 0
8 0 0 0
