LAMMPS data file via write_data, version 7 Feb 2024, timestep = 1522, units = metal

8 atoms
2 atom types

-0.00028885230900000004 5.777335032309 xlo xhi
0 5.77704618 ylo yhi
0 4.639666 zlo zhi
0 0 0 xy xz yz

Masses

1 55.845
2 107.8682

Pair Coeffs # lj/cut

1 0.125 2.65
2 0.125 2.65

Atoms # atomic

1 1 1.155080005375988 5.589137704339533 4.1430379343547665 0 -1 -1
2 1 5.583035653291239 1.1111745737571628 1.715885872057552 -1 0 0
3 2 5.530115082987123 3.9926302464493237 1.614831083004591 -1 -1 0
4 2 2.642340374651845 4.266325716219135 1.6567831912249464 0 -1 0
5 2 2.67533163335216 1.3810815329772652 1.7660232701087843 0 0 0
6 2 1.2187816956027282 2.8219649817714294 3.775798170801428 0 0 -1
7 2 4.153192331906192 2.509618070699856 3.975896153620338 -1 0 -1
8 2 4.131884113220316 5.399244294461433 4.016153045834805 -1 -1 -1

Velocities

1 -0.5210015003001669 -0.12816626325029484 3.912947960392358
2 2.2956155521320287 0.14359666150439623 2.284055460865877
3 1.841430812976569 0.6857083518891868 -1.512720801114844
4 -0.6806826849196025 -2.009409391336473 -2.361174677130844
5 -1.2068375223848429 0.5209135049121301 1.876159217048283
6 -0.5344452943265207 3.354856256863698 -1.2022967570138652
7 0.978131371202582 -1.3029466340250702 0.03643269915408881
8 -1.316341240486032 -1.257110639058005 -0.04468215956178049
