# FeAg3 alloy structure - Corrected LAMMPS format

8 atoms
2 atom types

0.000000 5.77704618 xlo xhi
0.000000 5.77704618 ylo yhi  
0.000000 4.63966600 zlo zhi
0.000000 0.000000 0.000000 xy xz yz

Masses

1 55.845
2 107.8682

Atoms # atomic

1 1 0.66666667 0.33333333 0.25000000
2 1 0.33333333 0.66666667 0.75000000
3 2 0.33881100 0.16940550 0.75000000
4 2 0.83059450 0.16940550 0.75000000
5 2 0.83059450 0.66118900 0.75000000
6 2 0.66118900 0.83059450 0.25000000
7 2 0.16940550 0.83059450 0.25000000
8 2 0.16940550 0.33881100 0.25000000
