# FeAg3 alloy structure generated from CIF data
# Lattice parameters: a=5.77704618, b=5.77704618, c=4.63966600, alpha=90, beta=90, gamma=120

8 atoms
3 atom types

0.0 5.77704618 xlo xhi
0.0 5.77704618 ylo yhi  
0.0 4.63966600 zlo zhi
0.0 0.0 0.0 xy xz yz

Masses

1 55.845    # Fe
2 107.8682  # Ag

Atoms

1 1 0.66666667 0.33333333 0.25000000  # Fe0
2 1 0.33333333 0.66666667 0.75000000  # Fe1  
3 2 0.33881100 0.16940550 0.75000000  # Ag2
4 2 0.83059450 0.16940550 0.75000000  # Ag3
5 2 0.83059450 0.66118900 0.75000000  # Ag4
6 2 0.66118900 0.83059450 0.25000000  # Ag5
7 2 0.16940550 0.83059450 0.25000000  # Ag6
8 2 0.16940550 0.33881100 0.25000000  # Ag7
